400
75 75
1 60 139
2 60 96
3 60 157
4 59 69
5 59 799
6 59 663
7 59 208
8 59 476
9 58 498
10 58 149
11 58 336
12 58 1000
13 58 319
14 58 834
15 58 619
16 58 224
17 57 671
18 57 475
19 57 925
20 57 20
21 57 197
22 57 926
23 57 23
24 57 11
25 56 88
26 56 299
27 56 720
28 56 766
29 56 784
30 56 662
31 56 525
32 55 522
33 55 821
34 55 796
35 55 655
36 55 669
37 55 747
38 55 752
39 55 531
40 55 601
41 55 425
42 55 339
43 55 780
44 54 105
45 54 75
46 54 103
47 54 169
48 54 492
49 54 992
50 54 526
51 54 659
52 53 411
53 53 825
54 53 735
55 53 524
56 53 105
57 53 494
58 53 584
59 53 334
60 53 572
61 53 807
62 52 117
63 52 896
64 52 256
65 52 994
66 52 601
67 51 974
68 51 887
69 51 745
70 51 862
71 51 50
72 51 865
73 51 368
74 50 583
75 50 576
76 50 676
77 50 573
78 50 960
79 50 137
80 50 600
81 50 858
82 50 866
83 50 112
84 50 918
85 50 121
86 49 179
87 49 164
88 49 291
89 49 330
90 49 167
91 49 15
92 49 96
93 48 447
94 48 82
95 48 479
96 48 684
97 48 81
98 48 901
99 48 737
100 48 41
101 48 414
102 48 306
103 48 626
104 47 455
105 47 771
106 47 580
107 47 738
108 47 594
109 47 196
110 47 25
111 47 660
112 46 613
113 46 369
114 46 556
115 46 490
116 46 997
117 46 277
118 46 588
119 46 371
120 46 84
121 45 25
122 45 724
123 45 730
124 45 238
125 45 325
126 44 578
127 44 676
128 44 647
129 44 202
130 44 734
131 44 394
132 43 17
133 43 830
134 43 267
135 43 724
136 43 547
137 43 388
138 42 709
139 42 961
140 42 706
141 42 467
142 41 741
143 41 336
144 41 998
145 41 916
146 41 328
147 41 406
148 41 756
149 41 368
150 41 818
151 40 755
152 40 948
153 40 509
154 40 367
155 40 439
156 40 270
157 40 691
158 40 102
159 40 237
160 40 38
161 40 485
162 39 578
163 39 551
164 39 159
165 39 160
166 39 257
167 39 886
168 39 84
169 39 642
170 38 595
171 38 744
172 38 110
173 38 823
174 38 643
175 38 716
176 38 827
177 38 607
178 38 826
179 38 219
180 38 272
181 38 987
182 37 338
183 37 317
184 37 814
185 37 725
186 37 335
187 36 623
188 36 613
189 36 703
190 36 432
191 36 664
192 36 680
193 35 685
194 35 228
195 35 466
196 35 238
197 34 727
198 34 728
199 34 746
200 34 897
201 34 876
202 34 408
203 34 387
204 33 17
205 33 969
206 33 661
207 33 437
208 33 793
209 33 705
210 33 665
211 33 379
212 33 437
213 32 946
214 32 134
215 32 186
216 32 264
217 32 316
218 32 366
219 32 646
220 31 761
221 31 585
222 31 346
223 31 26
224 31 168
225 30 530
226 30 44
227 30 646
228 30 779
229 30 318
230 30 314
231 30 975
232 29 373
233 29 303
234 29 290
235 29 549
236 29 657
237 29 761
238 28 44
239 28 427
240 28 9
241 28 407
242 28 702
243 27 728
244 27 53
245 27 661
246 27 150
247 27 283
248 27 966
249 27 146
250 27 691
251 27 380
252 26 582
253 26 196
254 26 20
255 26 481
256 26 439
257 25 678
258 25 569
259 25 254
260 25 205
261 25 322
262 25 238
263 25 376
264 25 189
265 25 656
266 25 787
267 24 99
268 24 834
269 24 711
270 24 38
271 24 189
272 24 324
273 23 775
274 23 592
275 23 816
276 23 925
277 23 988
278 23 237
279 22 41
280 22 264
281 22 628
282 22 836
283 21 264
284 21 754
285 21 257
286 21 861
287 21 318
288 21 719
289 21 962
290 20 470
291 20 997
292 20 947
293 20 35
294 20 460
295 20 87
296 20 716
297 20 526
298 20 538
299 20 120
300 19 103
301 19 678
302 19 147
303 19 952
304 19 303
305 19 474
306 18 595
307 18 918
308 18 238
309 18 768
310 18 224
311 18 974
312 18 564
313 18 165
314 18 980
315 18 808
316 17 810
317 17 151
318 17 508
319 17 719
320 17 254
321 17 13
322 17 480
323 17 104
324 17 601
325 16 1
326 16 652
327 16 397
328 16 403
329 16 782
330 16 222
331 16 593
332 16 401
333 15 294
334 15 129
335 15 662
336 15 124
337 15 328
338 14 733
339 14 27
340 14 880
341 14 621
342 14 4
343 14 1
344 13 146
345 13 400
346 13 879
347 13 505
348 13 699
349 13 420
350 13 733
351 13 922
352 13 458
353 12 115
354 12 494
355 12 546
356 12 682
357 12 435
358 11 717
359 11 754
360 11 546
361 11 512
362 11 362
363 11 649
364 11 827
365 10 243
366 10 283
367 10 849
368 10 757
369 10 596
370 10 951
371 10 948
372 10 741
373 10 59
374 10 418
375 10 811
376 10 895
377 10 535
378 10 974
379 10 918
380 10 953
381 9 774
382 9 507
383 9 903
384 9 101
385 9 402
386 9 78
387 9 652
388 8 838
389 8 490
390 8 882
391 8 788
392 8 611
393 8 955
394 8 867
395 8 986
396 7 620
397 7 228
398 7 850
399 7 352
400 7 418
